0 21 1 33 18 5 29 31
21 0 34 11 1 5 2 3
1 34 0 42 32 12 41 44
33 11 42 0 19 15 3 2
18 1 32 19 0 5 6 8
5 5 12 15 5 0 10 11
29 2 41 3 6 10 0 0
31 3 44 2 8 11 0 0

0 8 8 4 8 4 2 10
8 0 32 4 16 12 2 2
8 32 0 20 16 12 18 34
4 4 20 0 4 14 2 2
8 16 16 4 0 24 10 10
4 12 12 14 24 0 6 20
2 2 18 2 10 6 0 4
10 2 34 2 10 20 4 0